============================[ Problem Statistics ]=============================|                                                                             ||  Number of variables:          4242                                         ||  Number of clauses:           10341                                         ||  Parse time:                   0.72 s                                       ||                                                                             |============================[ Search Statistics ]==============================| Conflicts |          ORIGINAL         |          LEARNT          | Progress ||           |    Vars  Clauses Literals |    Limit  Clauses Lit/Cl |          |===============================================================================|       100 |    1591     6546  1162087 |     2400      100     53 | 62.501 % ||       250 |    1591     6546  1162087 |     2640      250     75 | 62.495 % |===============================================================================restarts              : 3conflicts             : 395            (359 /sec)decisions             : 660            (0.00 % random) (600 /sec)propagations          : 12047          (10952 /sec)conflict literals     : 32710          (94.55 % deleted)CPU time              : 1.1 sSATISFIABLE